p cnf 7230 17
-3500 -3502 4704 -4709 0
-4705 4709 0
-4072 -4074 -4078 4706 0
4072 -4707 0
-4070 4703 0
4078 -4707 0
4074 -4707 0
3500 -4705 0
-4706 4707 0
-4704 4705 0
4708 4709 0
4076 -4709 0
-4076 -4708 0
3502 -4705 0
-4702 -4703 0
4078 -4711 0
4702 4703 0
